
Gurobi 9.5.2 (mac64[arm]) logging started Tue Mar 28 21:56:01 2023

Set parameter LogFile to value "./ccga_results/2023-03-28 21-55-54-461/MSP_TimeStampConvert_gurobi_log.txt"

Gurobi 9.5.2 (mac64[arm]) logging started Tue Mar 28 21:56:02 2023

Set parameter LogFile to value "./ccga_results/2023-03-28 21-55-54-461/MSP_TimeStampConvert_gurobi_log.txt"
Set parameter TimeLimit to value 180
Gurobi Optimizer version 9.5.2 build v9.5.2rc0 (mac64[arm])
Thread count: 8 physical cores, 8 logical processors, using up to 8 threads
Optimize a model with 100 rows, 77 columns and 242 nonzeros
Model fingerprint: 0x38c677b2
Variable types: 5 continuous, 72 integer (72 binary)
Coefficient statistics:
  Matrix range     [1e+00, 1e+00]
  Objective range  [1e+00, 1e+00]
  Bounds range     [5e+01, 5e+01]
  RHS range        [1e+00, 1e+00]
Found heuristic solution: objective 200.0000000

Explored 0 nodes (0 simplex iterations) in 0.00 seconds (0.00 work units)
Thread count was 1 (of 8 available processors)

Solution count 1: 200 

Optimal solution found (tolerance 5.00e-02)
Best objective 2.000000000000e+02, best bound 2.000000000000e+02, gap 0.0000%

User-callback calls 21, time in user-callback 0.00 sec
